NAME : portgen-23-19
COMMENT : portgen N=23, seed=19
TYPE : TSP
DIMENSION : 23
EDGE_WEIGHT_TYPE : EUC_2D
NODE_COORD_SECTION
1 673360 97832
2 382773 469022
3 611497 110472
4 498799 746846
5 537196 247957
6 613316 250326
7 667454 384788
8 142972 77096
9 35386 626246
10 731213 465491
11 725787 959413
12 526181 647568
13 265561 22134
14 530109 2198
15 721260 804508
16 145616 562974
17 359381 713672
18 853415 55038
19 611566 113356
20 176127 380533
21 491958 850524
22 772517 227993
23 750837 495993
